6350 71 435 14900 8272
6446 74 435 18393 7944
6380 80 435 20061 8294
6420 76 435 19347 8244
6366 51 435 17002 7750
6348 68 435 12221 8272
6256 70 435 18820 8260
6368 71 435 13652 8076
6656 62 435 12524 8184
6250 77 435 18142 7904
